790 1027 457 0 171
361 0 501 588 265
1058 595 101 182 943
10 845 1126 321 636
750 1156 0 432 361
0 923 713 554 472
65 682 48 1131 862
1017 773 299 5 982
905 115 205 1056 724
643 1085 361 129 1017
533 866 428 1138 0
585 346 643 52 1037
655 205 956 378 937
265 1205 1070 665 229
1135 523 65 724 709
1028 439 1157 800 93
458 268 875 862 774
120 945 793 1027 432
853 89 1233 905 554
799 531 1038 267 1070
